Route #1: 14 3 108 91 5 46 89
Route #2: 49 19 58 12 41 68 54 50 52
Route #3: 6 109 69 18 25 103 24 84 4 101
Route #4: 38 105 32 79 1 90 16 70
Route #5: 71 80 30 56 55 76 83 22 61 60
Route #6: 8 62 100 40 47 86 10 63 72
Route #7: 77 11 85 51 67 45 34 106
Route #8: 39 28 31 17 27 65 36 99
Route #9: 2 43 93 104 64 59 95 96
Route #10: 48 57 13 23 82 107 7
Route #11: 102 33 9 87 26 53 15 98 66
Route #12: 78 29 44 81 94 37 35 73
Route #13: 92 20 97 42 74 88 21 75
cost: 17534
